DIMENSION: 7
EDGE_WEIGHT_TYPE: EXPLICIT
EDGE_WEIGHT_FORMAT: FULL_MATRIX
EDGE_WEIGHT_SECTION:
32767 55 32767 32767 32767 13 32767 
55 32767 37 32767 32767 32767 32767 
32767 37 32767 89 32767 32767 32767 
32767 32767 89 32767 32767 45 35 
32767 32767 32767 32767 32767 32767 32767 
13 32767 32767 45 32767 32767 32767 
32767 32767 32767 35 32767 32767 32767 
EOF